
  26    0


   0  14 2 3 4 5 7 8 10 11 12 21 22 23 24 25 
   8   5 20 19 15 14 13 
   8   4 18 15 14 13 
   1   3 15 14 9 
   3   2 15 6 
   5   2 14 13 
   1   2 17 13 
  10   1 9 
   8   1 13 
   4   1 16 
   9   1 13 
   3   1 13 
   7   1 26
   9   1 26
   1   1 26
   3   1 26
   3   1 26
   1   1 26
   6   1 26
   7   1 26
   7   1 26
   6   1 26
   2   1 26
   4   1 26
   4   1 26
   0   0 
